Version identifier: 20.1.0.0 | 2020-11-10 | 9bedb6d68
CPXPARAM_Parallel                                1
CPXPARAM_Simplex_Limits_Iterations               10000000
CPXPARAM_MIP_Interval                            100
CPXPARAM_TimeLimit                               900
Found incumbent of value -832650.428938 after 0.00 sec. (0.68 ticks)
Tried aggregator 2 times.
MIP Presolve eliminated 216 rows and 216 columns.
MIP Presolve modified 1080 coefficients.
Aggregator did 504 substitutions.
Reduced MIP has 3380 rows, 4680 columns, and 20652 nonzeros.
Reduced MIP has 432 binaries, 0 generals, 0 SOSs, and 0 indicators.
Presolve time = 0.02 sec. (14.91 ticks)
Probing time = 0.00 sec. (0.69 ticks)
Tried aggregator 1 time.
Detecting symmetries...
Reduced MIP has 3380 rows, 4680 columns, and 20652 nonzeros.
Reduced MIP has 858 binaries, 0 generals, 0 SOSs, and 0 indicators.
Presolve time = 0.01 sec. (10.14 ticks)
Probing time = 0.00 sec. (0.96 ticks)
MIP emphasis: balance optimality and feasibility.
MIP search method: dynamic search.
Parallel mode: deterministic, using up to 2 threads.
Root relaxation solution time = 0.06 sec. (41.69 ticks)

        Nodes                                         Cuts/
   Node  Left     Objective  IInf  Best Integer    Best Bound    ItCnt     Gap

*     0+    0                      -832650.4289 -2385160.2199           186.45%
*     0+    0                     -1380947.8450 -2385160.2199            72.72%
      0     0 -1390423.7693   286 -1380947.8450 -1390423.7693     1552    0.69%
*     0+    0                     -1385823.4566 -1390423.7693             0.33%
      0     0 -1387023.0437    88 -1385823.4566     Cuts: 945     2166    0.09%
*     0+    0                     -1386637.1104 -1387023.0437             0.03%
      0     0 -1386716.5116    21 -1386637.1104     Cuts: 322     2335    0.01%

Implied bound cuts applied:  763
Flow cuts applied:  128
Mixed integer rounding cuts applied:  141
Lift and project cuts applied:  15
Gomory fractional cuts applied:  30

Root node processing (before b&c):
  Real time             =    0.59 sec. (354.79 ticks)
Parallel b&c, 2 threads:
  Real time             =    0.00 sec. (0.00 ticks)
  Sync time (average)   =    0.00 sec.
  Wait time (average)   =    0.00 sec.
                          ------------
Total (root+branch&cut) =    0.59 sec. (354.79 ticks)

Optimal whithin tolerances
Solution value = 0.000000

CPLEX Error  1217: No solution exists.
Simplex iterations = 0


Version identifier: 20.1.0.0 | 2020-11-10 | 9bedb6d68
CPXPARAM_Parallel                                1
CPXPARAM_Simplex_Limits_Iterations               10000000
CPXPARAM_MIP_Interval                            100
CPXPARAM_TimeLimit                               900
Problem is feasible; no conflict available.
Version identifier: 20.1.0.0 | 2020-11-10 | 9bedb6d68
CPXPARAM_Parallel                                1
CPXPARAM_Simplex_Limits_Iterations               10000000
CPXPARAM_MIP_Interval                            100
CPXPARAM_TimeLimit                               900
Tried aggregator 2 times.
MIP Presolve eliminated 196 rows and 125 columns.
MIP Presolve modified 813 coefficients.
Aggregator did 808 substitutions.
Reduced MIP has 3522 rows, 5293 columns, and 22776 nonzeros.
Reduced MIP has 432 binaries, 0 generals, 0 SOSs, and 0 indicators.
Presolve time = 0.04 sec. (16.73 ticks)
Found incumbent of value 2.3919488e+10 after 0.06 sec. (23.04 ticks)
Probing fixed 0 vars, tightened 71 bounds.
Probing time = 0.03 sec. (0.86 ticks)
Tried aggregator 1 time.
Detecting symmetries...
MIP Presolve modified 142 coefficients.
Reduced MIP has 3522 rows, 5293 columns, and 22776 nonzeros.
Reduced MIP has 858 binaries, 0 generals, 0 SOSs, and 0 indicators.
Presolve time = 0.03 sec. (11.29 ticks)
Probing time = 0.01 sec. (1.12 ticks)
MIP emphasis: balance optimality and feasibility.
MIP search method: dynamic search.
Parallel mode: deterministic, using up to 2 threads.
Root relaxation solution time = 0.08 sec. (55.89 ticks)

        Nodes                                         Cuts/
   Node  Left     Objective  IInf  Best Integer    Best Bound    ItCnt     Gap

*     0+    0                       2.39195e+10  -2.45276e+07           100.10%
*     0+    0                     -1248301.5478  -2.45276e+07              --- 
      0     0 -1300987.3234   283 -1248301.5478 -1300987.3234     2374    4.22%
*     0+    0                     -1288201.6803 -1300987.3234             0.99%
*     0+    0                     -1290077.3419 -1300987.3234             0.85%
      0     0 -1294865.0699   210 -1290077.3419     Cuts: 980     3530    0.37%
*     0+    0                     -1291666.6671 -1294865.0699             0.25%
      0     0 -1293415.6859   191 -1291666.6671     Cuts: 722     4138    0.14%
*     0+    0                     -1292741.3725 -1293415.6859             0.05%
      0     0 -1293109.5280   142 -1292741.3725     Cuts: 395     4479    0.03%
      0     0 -1293019.4751   111 -1292741.3725     Cuts: 187     4625    0.02%
*     0+    0                     -1292865.1365 -1293019.4751             0.01%
      0     0 -1292979.6449   112 -1292865.1365     Cuts: 108     4716    0.01%

Implied bound cuts applied:  834
Flow cuts applied:  58
Mixed integer rounding cuts applied:  339
Lift and project cuts applied:  10
Gomory fractional cuts applied:  16

Root node processing (before b&c):
  Real time             =    1.70 sec. (889.81 ticks)
Parallel b&c, 2 threads:
  Real time             =    0.00 sec. (0.00 ticks)
  Sync time (average)   =    0.00 sec.
  Wait time (average)   =    0.00 sec.
                          ------------
Total (root+branch&cut) =    1.70 sec. (889.81 ticks)

Optimal whithin tolerances
Solution value = 0.000000

CPLEX Error  1217: No solution exists.
Simplex iterations = 0


Version identifier: 20.1.0.0 | 2020-11-10 | 9bedb6d68
CPXPARAM_Parallel                                1
CPXPARAM_Simplex_Limits_Iterations               10000000
CPXPARAM_MIP_Interval                            100
CPXPARAM_TimeLimit                               900
Problem is feasible; no conflict available.
Version identifier: 20.1.0.0 | 2020-11-10 | 9bedb6d68
CPXPARAM_Parallel                                1
CPXPARAM_Simplex_Limits_Iterations               10000000
CPXPARAM_MIP_Interval                            100
CPXPARAM_TimeLimit                               900
Tried aggregator 2 times.
MIP Presolve eliminated 337 rows and 266 columns.
MIP Presolve modified 757 coefficients.
Aggregator did 667 substitutions.
Reduced MIP has 3522 rows, 5121 columns, and 22016 nonzeros.
Reduced MIP has 432 binaries, 0 generals, 0 SOSs, and 0 indicators.
Presolve time = 0.02 sec. (15.19 ticks)
Found incumbent of value 3.6924567e+10 after 0.03 sec. (21.32 ticks)
Probing time = 0.00 sec. (0.79 ticks)
Tried aggregator 1 time.
Detecting symmetries...
Reduced MIP has 3522 rows, 5121 columns, and 22016 nonzeros.
Reduced MIP has 858 binaries, 0 generals, 0 SOSs, and 0 indicators.
Presolve time = 0.02 sec. (10.42 ticks)
Probing time = 0.00 sec. (1.09 ticks)
MIP emphasis: balance optimality and feasibility.
MIP search method: dynamic search.
Parallel mode: deterministic, using up to 2 threads.
Root relaxation solution time = 0.07 sec. (58.70 ticks)

        Nodes                                         Cuts/
   Node  Left     Objective  IInf  Best Integer    Best Bound    ItCnt     Gap

*     0+    0                       3.69246e+10  -2.45276e+07           100.07%
*     0+    0                     -1262294.9367  -2.45276e+07              --- 
      0     0 -1292233.3682   316 -1262294.9367 -1292233.3682     2224    2.37%
*     0+    0                     -1281708.4114 -1292233.3682             0.82%
      0     0 -1284721.1435   235 -1281708.4114     Cuts: 980     3460    0.24%
*     0+    0                     -1281931.9354 -1284721.1435             0.22%
      0     0 -1283528.2709   163 -1281931.9354     Cuts: 861     4094    0.12%
*     0+    0                     -1283382.8687 -1283528.2709             0.01%
      0     0 -1283393.1027    77 -1283382.8687     Cuts: 313     4293    0.00%

Implied bound cuts applied:  992
Flow cuts applied:  107
Mixed integer rounding cuts applied:  316
Lift and project cuts applied:  8
Gomory fractional cuts applied:  24

Root node processing (before b&c):
  Real time             =    1.28 sec. (813.66 ticks)
Parallel b&c, 2 threads:
  Real time             =    0.00 sec. (0.00 ticks)
  Sync time (average)   =    0.00 sec.
  Wait time (average)   =    0.00 sec.
                          ------------
Total (root+branch&cut) =    1.28 sec. (813.66 ticks)

Optimal whithin tolerances
Solution value = 0.000000

CPLEX Error  1217: No solution exists.
Simplex iterations = 0


Version identifier: 20.1.0.0 | 2020-11-10 | 9bedb6d68
CPXPARAM_Parallel                                1
CPXPARAM_Simplex_Limits_Iterations               10000000
CPXPARAM_MIP_Interval                            100
CPXPARAM_TimeLimit                               900
Problem is feasible; no conflict available.
Version identifier: 20.1.0.0 | 2020-11-10 | 9bedb6d68
CPXPARAM_Parallel                                1
CPXPARAM_Simplex_Limits_Iterations               10000000
CPXPARAM_MIP_Interval                            100
CPXPARAM_TimeLimit                               900
Tried aggregator 2 times.
MIP Presolve eliminated 275 rows and 204 columns.
MIP Presolve modified 759 coefficients.
Aggregator did 729 substitutions.
Reduced MIP has 3522 rows, 5118 columns, and 22038 nonzeros.
Reduced MIP has 432 binaries, 0 generals, 0 SOSs, and 0 indicators.
Presolve time = 0.02 sec. (16.13 ticks)
Found incumbent of value 2.7429532e+10 after 0.02 sec. (22.27 ticks)
Probing fixed 0 vars, tightened 49 bounds.
Probing time = 0.00 sec. (0.83 ticks)
Tried aggregator 1 time.
Detecting symmetries...
MIP Presolve modified 98 coefficients.
Reduced MIP has 3522 rows, 5118 columns, and 22038 nonzeros.
Reduced MIP has 858 binaries, 0 generals, 0 SOSs, and 0 indicators.
Presolve time = 0.01 sec. (10.97 ticks)
Probing time = 0.00 sec. (1.09 ticks)
MIP emphasis: balance optimality and feasibility.
MIP search method: dynamic search.
Parallel mode: deterministic, using up to 2 threads.
Root relaxation solution time = 0.09 sec. (71.78 ticks)

        Nodes                                         Cuts/
   Node  Left     Objective  IInf  Best Integer    Best Bound    ItCnt     Gap

*     0+    0                       2.74295e+10  -2.45276e+07           100.09%
*     0+    0                     -1249815.6915  -2.45276e+07              --- 
      0     0 -1290641.0393   306 -1249815.6915 -1290641.0393     2445    3.27%
*     0+    0                     -1278400.6030 -1290641.0393             0.96%
      0     0 -1283324.0932   203 -1278400.6030     Cuts: 980     3693    0.39%
*     0+    0                     -1279362.5028 -1283324.0932             0.31%
*     0+    0                     -1280116.2275 -1283324.0932             0.25%
      0     0 -1281810.8061   197 -1280116.2275     Cuts: 866     4450    0.13%
*     0+    0                     -1281513.1076 -1281810.8061             0.02%
      0     0 -1281580.0394   117 -1281513.1076     Cuts: 419     4755    0.01%

Implied bound cuts applied:  903
Flow cuts applied:  50
Mixed integer rounding cuts applied:  421
Lift and project cuts applied:  8
Gomory fractional cuts applied:  39

Root node processing (before b&c):
  Real time             =    1.34 sec. (881.75 ticks)
Parallel b&c, 2 threads:
  Real time             =    0.00 sec. (0.00 ticks)
  Sync time (average)   =    0.00 sec.
  Wait time (average)   =    0.00 sec.
                          ------------
Total (root+branch&cut) =    1.34 sec. (881.75 ticks)

Optimal whithin tolerances
Solution value = 0.000000

CPLEX Error  1217: No solution exists.
Simplex iterations = 0


Version identifier: 20.1.0.0 | 2020-11-10 | 9bedb6d68
CPXPARAM_Parallel                                1
CPXPARAM_Simplex_Limits_Iterations               10000000
CPXPARAM_MIP_Interval                            100
CPXPARAM_TimeLimit                               900
Problem is feasible; no conflict available.
Version identifier: 20.1.0.0 | 2020-11-10 | 9bedb6d68
CPXPARAM_Parallel                                1
CPXPARAM_Simplex_Limits_Iterations               10000000
CPXPARAM_MIP_Interval                            100
CPXPARAM_TimeLimit                               900
Tried aggregator 2 times.
MIP Presolve eliminated 299 rows and 228 columns.
MIP Presolve modified 738 coefficients.
Aggregator did 705 substitutions.
Reduced MIP has 3522 rows, 5119 columns, and 22032 nonzeros.
Reduced MIP has 432 binaries, 0 generals, 0 SOSs, and 0 indicators.
Presolve time = 0.02 sec. (15.21 ticks)
Found incumbent of value 2.9589547e+10 after 0.03 sec. (20.92 ticks)
Probing fixed 0 vars, tightened 14 bounds.
Probing time = 0.00 sec. (0.83 ticks)
Tried aggregator 1 time.
Detecting symmetries...
MIP Presolve modified 28 coefficients.
Reduced MIP has 3522 rows, 5119 columns, and 22032 nonzeros.
Reduced MIP has 858 binaries, 0 generals, 0 SOSs, and 0 indicators.
Presolve time = 0.02 sec. (10.81 ticks)
Probing time = 0.00 sec. (1.09 ticks)
MIP emphasis: balance optimality and feasibility.
MIP search method: dynamic search.
Parallel mode: deterministic, using up to 2 threads.
Root relaxation solution time = 0.08 sec. (59.09 ticks)

        Nodes                                         Cuts/
   Node  Left     Objective  IInf  Best Integer    Best Bound    ItCnt     Gap

*     0+    0                       2.95895e+10  -2.45276e+07           100.08%
*     0+    0                     -1253606.3695  -2.45276e+07              --- 
      0     0 -1289977.4629   316 -1253606.3695 -1289977.4629     2450    2.90%
*     0+    0                     -1277667.9067 -1289977.4629             0.96%
*     0+    0                     -1278665.2137 -1289977.4629             0.88%
      0     0 -1282569.5227   206 -1278665.2137     Cuts: 980     3695    0.31%
*     0+    0                     -1279375.5155 -1282569.5227             0.25%
      0     0 -1281199.6909   175 -1279375.5155     Cuts: 832     4380    0.14%
*     0+    0                     -1280944.9933 -1281199.6909             0.02%
      0     0 -1281007.5623   114 -1280944.9933     Cuts: 365     4710    0.00%

Implied bound cuts applied:  901
Flow cuts applied:  55
Mixed integer rounding cuts applied:  371
Lift and project cuts applied:  10
Gomory fractional cuts applied:  32

Root node processing (before b&c):
  Real time             =    1.35 sec. (891.42 ticks)
Parallel b&c, 2 threads:
  Real time             =    0.00 sec. (0.00 ticks)
  Sync time (average)   =    0.00 sec.
  Wait time (average)   =    0.00 sec.
                          ------------
Total (root+branch&cut) =    1.35 sec. (891.42 ticks)

Optimal whithin tolerances
Solution value = 0.000000

CPLEX Error  1217: No solution exists.
Simplex iterations = 0


Version identifier: 20.1.0.0 | 2020-11-10 | 9bedb6d68
CPXPARAM_Parallel                                1
CPXPARAM_Simplex_Limits_Iterations               10000000
CPXPARAM_MIP_Interval                            100
CPXPARAM_TimeLimit                               900
Problem is feasible; no conflict available.
Version identifier: 20.1.0.0 | 2020-11-10 | 9bedb6d68
CPXPARAM_Parallel                                1
CPXPARAM_Simplex_Limits_Iterations               10000000
CPXPARAM_MIP_Interval                            100
CPXPARAM_TimeLimit                               900
Tried aggregator 1 time.
LP Presolve eliminated 1367 rows and 575 columns.
Aggregator did 283 substitutions.
Reduced LP has 722 rows, 2773 columns, and 7829 nonzeros.
Presolve time = 0.00 sec. (3.48 ticks)
Initializing dual steep norms . . .

Iteration log . . .
Iteration:     1   Dual objective     =      -2128680.150101
Iteration:   137   Dual objective     =      -1901827.445342
Iteration:   271   Dual objective     =      -1637606.710987
Iteration:   411   Dual objective     =      -1326568.684195

Optimal solution is available
Solution value = 0.000000

Simplex iterations = 523


Version identifier: 20.1.0.0 | 2020-11-10 | 9bedb6d68
CPXPARAM_Parallel                                1
CPXPARAM_Simplex_Limits_Iterations               10000000
CPXPARAM_MIP_Interval                            100
CPXPARAM_TimeLimit                               900
Problem is feasible; no conflict available.
Version identifier: 20.1.0.0 | 2020-11-10 | 9bedb6d68
CPXPARAM_Parallel                                1
CPXPARAM_Simplex_Limits_Iterations               10000000
CPXPARAM_MIP_Interval                            100
CPXPARAM_TimeLimit                               900
Tried aggregator 1 time.
LP Presolve eliminated 1367 rows and 575 columns.
Aggregator did 283 substitutions.
Reduced LP has 722 rows, 2742 columns, and 7732 nonzeros.
Presolve time = 0.00 sec. (3.45 ticks)
Initializing dual steep norms . . .

Iteration log . . .
Iteration:     1   Dual objective     =      -2123597.483533
Iteration:   134   Dual objective     =      -1908213.498688
Iteration:   270   Dual objective     =      -1635040.186558
Iteration:   421   Dual objective     =      -1303048.476626

Optimal solution is available
Solution value = 0.000000

Simplex iterations = 519


Version identifier: 20.1.0.0 | 2020-11-10 | 9bedb6d68
CPXPARAM_Parallel                                1
CPXPARAM_Simplex_Limits_Iterations               10000000
CPXPARAM_MIP_Interval                            100
CPXPARAM_TimeLimit                               900
Problem is feasible; no conflict available.
Version identifier: 20.1.0.0 | 2020-11-10 | 9bedb6d68
CPXPARAM_Parallel                                1
CPXPARAM_Simplex_Limits_Iterations               10000000
CPXPARAM_MIP_Interval                            100
CPXPARAM_TimeLimit                               900
Tried aggregator 1 time.
LP Presolve eliminated 1367 rows and 575 columns.
Aggregator did 283 substitutions.
Reduced LP has 722 rows, 2724 columns, and 7678 nonzeros.
Presolve time = 0.00 sec. (3.43 ticks)
Initializing dual steep norms . . .

Iteration log . . .
Iteration:     1   Dual objective     =      -2123570.049081
Iteration:   135   Dual objective     =      -1904858.563383
Iteration:   270   Dual objective     =      -1634867.094532
Iteration:   415   Dual objective     =      -1309594.104537

Optimal solution is available
Solution value = 0.000000

Simplex iterations = 517


Version identifier: 20.1.0.0 | 2020-11-10 | 9bedb6d68
CPXPARAM_Parallel                                1
CPXPARAM_Simplex_Limits_Iterations               10000000
CPXPARAM_MIP_Interval                            100
CPXPARAM_TimeLimit                               900
Problem is feasible; no conflict available.
